CPXPARAM_TimeLimit                               7200
CPXPARAM_Read_DataCheck                          1
Parallel mode: deterministic, using up to 8 threads for concurrent optimization.
Tried aggregator 1 time.
LP Presolve eliminated 625 rows and 0 columns.
Reduced LP has 9485 rows, 1801 columns, and 27659 nonzeros.
Presolve time = 0.00 sec. (4.54 ticks)

Iteration log . . .
Iteration:     1   Dual objective     =           911.000000
Perturbation started.
Iteration:   214   Dual objective     =           911.000000
Initializing dual steep norms . . .
Iteration:   215   Dual objective     =           911.000150
Iteration:   486   Dual objective     =           911.014114
Iteration:   675   Dual objective     =           911.015166
Iteration:   928   Dual objective     =           911.015805
Iteration:  1119   Dual objective     =           911.016054
Iteration:  1333   Dual objective     =           911.016728
Iteration:  1594   Dual objective     =           911.016831
Iteration:  1826   Dual objective     =           911.016988
Iteration:  2093   Dual objective     =           911.017383
Iteration:  2385   Dual objective     =           911.017711
Iteration:  2585   Dual objective     =           911.017737
Removing perturbation.

Dual simplex solved model.

